time,disp_y_top,stressyy
0,0,0
5e-05,0.0001,0.0043965616139507
0.0001,0.0002,0.0087930671454973
0.00015,0.0003,0.013189456573266
0.0002,0.0004,0.017585669875634
0.00025,0.0005,0.021981647031745
0.0003,0.0006,0.026377328025019
0.00035,0.0007,0.030772652838601
0.0004,0.0008,0.035167561459189
0.00045,0.0009,0.039561993876542
0.0005,0.001,0.043955890084037
0.00055,0.0011,0.048349190079055
0.0006,0.0012,0.052741833863448
0.00065,0.0013,0.057133761444881
0.0007,0.0014,0.061524912833533
0.00075,0.0015,0.065915228048174
0.0008,0.0016,0.070304647112824
0.00085,0.0017,0.074693110058114
0.0009,0.0018,0.079080556921707
0.00095,0.0019,0.083466927748711
0.001,0.002,0.08785216259209
0.00105,0.0021,0.092236201513061
0.0011,0.0022,0.096618984581497
0.00115,0.0023,0.10100045187632
0.0012,0.0024,0.10538054348586
0.00125,0.0025,0.10975919950829
0.0013,0.0026,0.11413636005193
0.00135,0.0027,0.11851196523566
0.0014,0.0028,0.12288595518922
0.00145,0.0029,0.12725827005364
0.0015,0.003,0.1316288499815
0.00155,0.0031,0.13599763513729
0.0016,0.0032,0.14036456569773
0.00165,0.0033,0.14472958185209
0.0017,0.0034,0.14909262380247
0.00175,0.0035,0.15345363176408
0.0018,0.0036,0.15781254596558
0.00185,0.0037,0.16216930664928
0.0019,0.0038,0.16652385407141
0.00195,0.0039,0.1708761285024
0.002,0.004,0.17522607022707
0.00205,0.0041,0.17957361954487
0.0021,0.0042,0.18391871677009
0.00215,0.0043,0.18826130223204
0.0022,0.0044,0.19260131627522
0.00225,0.0045,0.1969386992595
0.0023,0.0046,0.20127339156028
0.00235,0.0047,0.2056053335685
0.0024,0.0048,0.20993446569089
0.00245,0.0049,0.21426072834879
0.0025,0.005,0.21858406198339
0.00255,0.0051,0.22290440704798
0.0026,0.0052,0.22722170401317
0.00265,0.0053,0.23153589336577
0.0027,0.0053999999999999,0.23584691560861
0.00275,0.0054999999999999,0.2401547112607
0.0028,0.0055999999999999,0.24445922085689
0.00285,0.0056999999999999,0.24876038494824
0.0029,0.0057999999999999,0.25305814410166
0.00295,0.0058999999999999,0.2573524389001
0.003,0.0059999999999999,0.26164320994336
0.00305,0.0060999999999999,0.26593039784283
0.0031,0.0061999999999999,0.27021394322945
0.00315,0.0062999999999999,0.27449378674803
0.0032,0.0063999999999999,0.27876986905853
0.00325,0.0064999999999999,0.28304213083556
0.0032999999999999,0.0065999999999999,0.28731051276545
0.0033499999999999,0.0066999999999999,0.29157495555156
0.0033999999999999,0.0067999999999999,0.29583539991359
0.0034499999999999,0.0068999999999999,0.3000917865825
0.0034999999999999,0.0069999999999999,0.30434405630297
0.0035499999999999,0.0070999999999999,0.30859214983142
0.0035999999999999,0.0071999999999999,0.31283600793711
0.0036499999999999,0.0072999999999999,0.31707557140122
0.0036999999999999,0.0073999999999999,0.32131078101631
0.0037499999999999,0.0074999999999999,0.3246324030023
0.0037999999999999,0.0075999999999999,0.32490790245627
0.0038499999999999,0.0076999999999999,0.32886018610398
0.0038999999999999,0.0077999999999999,0.33167768372487
0.0039499999999999,0.0078999999999998,0.33164275904972
0.0039999999999999,0.0079999999999998,0.32982084514202
0.0040499999999999,0.0080999999999998,0.32643970123672
0.0040999999999999,0.0081999999999998,0.32191039259436
0.0041499999999999,0.0082999999999998,0.31575163923822
0.0041999999999999,0.0083999999999998,0.30897692321662
0.0042499999999999,0.0084999999999998,0.30120282796568
0.0042999999999999,0.0085999999999998,0.29301115836892
0.0043499999999999,0.0086999999999998,0.28473622085761
0.0043999999999999,0.0087999999999998,0.27579298819957
0.0044499999999999,0.0088999999999998,0.26683163528458
0.0044999999999999,0.0089999999999998,0.2577035899865
0.0045499999999999,0.0090999999999998,0.24803099313206
0.0045999999999999,0.0091999999999998,0.23810928011365
0.0046499999999999,0.0092999999999998,0.22787950257804
0.0046999999999999,0.0093999999999998,0.21830835810047
0.0047499999999999,0.0094999999999998,0.20858546637112
0.0047999999999999,0.0095999999999998,0.19948166389539
0.0048499999999999,0.0096999999999998,0.1913219568785
0.0048999999999999,0.0097999999999998,0.18348419534618
0.0049499999999999,0.0098999999999998,0.17559897662393
0.0049999999999999,0.0099999999999998,0.16735653311637
0.0050499999999999,0.0101,0.15851373385352
0.0050949999999999,0.01019,0.13542246155565
0.0051268749999999,0.01025375,0.10300302019363
0.0051768749999999,0.01035375,0.05380705724624
0.0051834374999999,0.010366875,0.024849854303258
0.0051984374999999,0.010396875,0.0051597740934828
0.0052484374999999,0.010496875,0.0051854285903342
0.0052984374999999,0.010596875,0.005211226652229
0.0053484374999999,0.010696875,0.0052366249674325
0.0053984374999999,0.010796875,0.005260442497035
0.0054484374999999,0.010896875,0.0052827077245037
0.0054984374999999,0.010996875,0.0053052338454223
0.0055484374999999,0.011096875,0.0053270201495599
0.0055984374999999,0.011196875,0.0053500350459444
0.0056484374999999,0.011296875,0.0053731567232259
0.0056984374999999,0.011396875,0.0053963787653094
0.0057484374999999,0.011496875,0.0054197341477406
0.0057984374999998,0.011596875,0.0054432526411059
0.0058484374999998,0.011696875,0.0054669981765124
0.0058984374999998,0.011796875,0.0054908652298159
0.0059484374999998,0.011896875,0.0055144818981667
0.0059984374999998,0.011996875,0.0055381464447491
0.0060484374999998,0.012096875,0.0055623608472857
0.0060984374999998,0.012196875,0.005586348002329
0.0061484374999998,0.012296875,0.005610339023209
0.0061984374999998,0.012396875,0.0056341569038942
0.0062484374999998,0.012496875,0.0056579196969137
0.0062984374999998,0.012596875,0.005681651945741
0.0063484374999998,0.012696875,0.0057053703042962
0.0063984374999998,0.012796875,0.0057288527031156
0.0064484374999998,0.012896875,0.0057522135147708
0.0064984374999998,0.012996875,0.0057754802499586
0.0065484374999998,0.013096875,0.0057983611063263
0.0065984374999998,0.013196875,0.0058209832588444
0.0066484374999998,0.013296875,0.0058435042817542
0.0066984374999998,0.013396875,0.0058662791311232
0.0067484374999998,0.013496875,0.0058885541782045
0.0067984374999998,0.013596875,0.0059106530675555
0.0068484374999998,0.013696875,0.0059326348659599
0.0068984374999998,0.013796875,0.0059544591749366
0.0069484374999998,0.013896875,0.0059760684044213
0.0069984374999998,0.013996875,0.0059972194807605
0.0070484374999998,0.014096875,0.0060181768119305
0.0070984374999998,0.014196875,0.0060388583249244
0.0071484374999998,0.014296875,0.0060592957034406
0.0071984374999998,0.014396875,0.0060792133199674
0.0072484374999998,0.014496875,0.0060987872802632
0.0072984374999998,0.014596875,0.0061181659440727
0.0073484374999998,0.014696875,0.0061373733108917
0.0073984374999998,0.014796875,0.006156373440396
0.0074484374999998,0.014896875,0.006175208734638
0.0074984374999998,0.014996875,0.0061938484520674
