time,disp_y_top,stressyy
0,0,0
5e-05,0.0001,0.0045070172557183
0.0001,0.0002,0.0090139771871271
0.00015,0.0003,0.013520818474856
0.0002,0.0004,0.018027479799167
0.00025,0.0005,0.022533899841736
0.0003,0.0006,0.027040017285759
0.00035,0.0007,0.031545770816342
0.0004,0.0008,0.036051099120877
0.00045,0.0009,0.040555940889428
0.0005,0.001,0.045060234815111
0.00055,0.0011,0.049563919594463
0.0006,0.0012,0.054066933927825
0.00065,0.0013,0.058569216519701
0.0007,0.0014,0.063070706079129
0.00075,0.0015,0.067571341320044
0.0008,0.0016,0.072071060961627
0.00085,0.0017,0.076569803728665
0.0009,0.0018,0.08106750835189
0.00095,0.0019,0.085564113568326
0.001,0.002,0.090059558121617
0.00105,0.0021,0.094553780762358
0.0011,0.0022,0.099046720248416
0.00115,0.0023,0.10353831534524
0.0012,0.0024,0.10802850482618
0.00125,0.0025,0.11251722747276
0.0013,0.0026,0.11700442207499
0.00135,0.0027,0.12149002743163
0.0014,0.0028,0.12597398235049
0.00145,0.0029,0.13045622564864
0.0015,0.003,0.13493669615271
0.00155,0.0031,0.13941533269912
0.0016,0.0032,0.14389207413428
0.00165,0.0033,0.14836685931485
0.0017,0.0034,0.1528396271079
0.00175,0.0035,0.15731031639116
0.0018,0.0036,0.16177886605313
0.00185,0.0037,0.16624521499333
0.0019,0.0038,0.17070930212239
0.00195,0.0039,0.17517106636219
0.002,0.004,0.17963044664604
0.00205,0.0041,0.18408738191874
0.0021,0.0042,0.18854181113667
0.00215,0.0043,0.19299367326917
0.0022,0.0044,0.19744290729353
0.00225,0.0045,0.20188945220261
0.0023,0.0046,0.20633324699977
0.00235,0.0047,0.21077423070016
0.0024,0.0048,0.21521234233062
0.00245,0.0049,0.21964752093011
0.0025,0.005,0.22407970554887
0.00255,0.0051,0.22850883524913
0.0026,0.0052,0.23293484910428
0.00265,0.0053,0.23735768619947
0.0027,0.0053999999999999,0.2417772856309
0.00275,0.0054999999999999,0.24619358650435
0.0028,0.0055999999999999,0.25060652794131
0.00285,0.0056999999999999,0.25501604906915
0.0029,0.0057999999999999,0.25942208902728
0.00295,0.0058999999999999,0.26382458696534
0.003,0.0059999999999999,0.2682234820428
0.00305,0.0060999999999999,0.27261871342875
0.0031,0.0061999999999999,0.27701022030145
0.00315,0.0062999999999999,0.28139794184799
0.0032,0.0063999999999999,0.28578181726387
0.00325,0.0064999999999999,0.29016178575257
0.0032999999999999,0.0065999999999999,0.29453778652511
0.0033499999999999,0.0066999999999999,0.29890975879939
0.0033999999999999,0.0067999999999999,0.30327764179967
0.0034499999999999,0.0068999999999999,0.3076413747561
0.0034999999999999,0.0069999999999999,0.31200089690406
0.0035499999999999,0.0070999999999999,0.31635614748344
0.0035999999999999,0.0071999999999999,0.32070706573803
0.0036499999999999,0.0072999999999999,0.32501236269404
0.0036999999999999,0.0073999999999999,0.32634239793055
0.0037499999999999,0.0074999999999999,0.33000916204695
0.0037999999999999,0.0075999999999999,0.33423820001037
0.0038499999999999,0.0076999999999999,0.33838843547343
0.0038999999999999,0.0077999999999999,0.34172792815308
0.0039499999999999,0.0078999999999998,0.34411144477985
0.0039999999999999,0.0079999999999998,0.34558120296395
0.0040499999999999,0.0080999999999998,0.34601186143005
0.0040999999999999,0.0081999999999998,0.34582887226508
0.0041499999999999,0.0082999999999998,0.34426282541489
0.0041999999999999,0.0083999999999998,0.34226467927805
0.0042499999999999,0.0084999999999998,0.33934954684709
0.0042999999999999,0.0085999999999998,0.33580949548984
0.0043499999999999,0.0086999999999998,0.33201491762704
0.0043999999999999,0.0087999999999998,0.32812222617106
0.0044499999999999,0.0088999999999998,0.3248992547422
0.0044999999999999,0.0089999999999998,0.32235903249127
0.0045474999999999,0.0090949999999998,0.3121667052923
0.0045974999999999,0.0091949999999998,0.27026397526284
0.0046474999999999,0.0092949999999998,0.25356432480903
0.0046974999999999,0.0093949999999998,0.23328564423403
0.0047474999999999,0.0094949999999998,0.20155269509154
0.0047974999999999,0.0095949999999998,0.17698593301937
0.0048474999999999,0.0096949999999998,0.1636860053683
0.0048974999999999,0.0097949999999998,0.1527790162741
0.0049474999999999,0.0098949999999998,0.1415291652945
0.0049974999999999,0.0099949999999998,0.12853251774884
0.0050474999999999,0.010095,0.11690339627519
0.0050974999999999,0.010195,0.11099488383141
0.0051474999999999,0.010295,0.10981801826248
0.0051974999999999,0.010395,0.10980486035878
0.0052474999999999,0.010495,0.10932699506345
0.0052974999999999,0.010595,0.10812009047134
0.0053474999999999,0.010695,0.10692799415189
0.0053974999999999,0.010795,0.10443124068462
0.0054274999999999,0.010855,0.085010458256836
0.0054429687499999,0.0108859375,0.040023559023068
0.0054531640624999,0.010906328125,0.014254077364714
0.0055031640624999,0.011006328125,0.014249996455356
0.0055531640624999,0.011106328125,0.01433240692593
0.0056031640624999,0.011206328125,0.014409946268429
0.0056531640624999,0.011306328125,0.01448511624674
0.0057031640624999,0.011406328125,0.014556917674633
0.0057531640624999,0.011506328125,0.014628176183215
0.0058031640624999,0.011606328125,0.014698415769142
0.0058531640624998,0.011706328125,0.014768552641706
0.0059031640624998,0.011806328125,0.014838282105609
0.0059531640624998,0.011906328125,0.014907827435846
0.0060031640624998,0.012006328125,0.014976918165486
0.0060531640624998,0.012106328125,0.015045584245743
0.0061031640624998,0.012206328125,0.015114004416399
0.0061531640624998,0.012306328125,0.015181899671641
0.0062031640624998,0.012406328125,0.015249477002761
0.0062531640624998,0.012506328125,0.015317077339206
0.0063031640624998,0.012606328125,0.015384604156944
0.0063531640624998,0.012706328125,0.015455728640533
0.0064031640624998,0.012806328125,0.015530697803068
0.0064531640624998,0.012906328125,0.015605563817881
0.0065031640624998,0.013006328125,0.01568037198737
0.0065531640624998,0.013106328125,0.015755245472027
0.0066031640624998,0.013206328125,0.015830085046943
0.0066531640624998,0.013306328125,0.015904283407526
0.0067031640624998,0.013406328125,0.015978173482931
0.0067531640624998,0.013506328125,0.016051354710546
0.0068031640624998,0.013606328125,0.016124924122012
0.0068531640624998,0.013706328125,0.016197412534678
0.0069031640624998,0.013806328125,0.016270476258367
0.0069531640624998,0.013906328125,0.016342753722487
0.0070031640624998,0.014006328125,0.016409418025035
0.0070531640624998,0.014106328125,0.016466764865762
0.0071031640624998,0.014206328125,0.016521658291414
0.0071531640624998,0.014306328125,0.016581114345831
0.0072006640624998,0.014401328125,0.016581335424784
0.0072506640624998,0.014501328125,0.016590775400459
0.0073006640624998,0.014601328125,0.016626302373105
0.0073506640624998,0.014701328125,0.016670386403025
0.0074006640624998,0.014801328125,0.016719381926716
0.0074506640624998,0.014901328125,0.016771740676049
0.0075,0.015,0.016830319353078
