time,disp_y_top,stressyy
0,0,0
5e-05,0.0001,0.0081741636490561
0.0001,0.0002,0.016348155028498
0.00015,0.0003,0.024521791800673
0.0002,0.0004,0.032694891571044
0.00025,0.0005,0.040867271861877
0.0003,0.0006,0.049038750082338
0.00035,0.0007,0.057209143498881
0.0004,0.0008,0.065378269206102
0.00045,0.0009,0.073545944096066
0.0005,0.001,0.081711984827953
0.00055,0.0011,0.089876207798451
0.0006,0.0012,0.098038429109475
0.00065,0.0013,0.10619846453679
0.0007,0.0014,0.11435612949737
0.00075,0.0015,0.12251123901676
0.0008,0.0016,0.1306636076948
0.00085,0.0017,0.13881304967201
0.0009,0.0018,0.14695937859313
0.00095,0.0019,0.15510240757197
0.001,0.002,0.16324194915366
0.00105,0.0021,0.17137781527575
0.0011,0.0022,0.17950981722959
0.00115,0.0023,0.18763776561877
0.0012,0.0024,0.19576147031791
0.00125,0.0025,0.20388074042684
0.0013,0.0026,0.21199538422764
0.00135,0.0027,0.22010520913711
0.0014,0.0028,0.22821002165958
0.00145,0.0029,0.23630962733061
0.0015,0.003,0.24440383067176
0.00155,0.0031,0.25249243513029
0.0016,0.0032,0.26057524302158
0.00165,0.0033,0.26865205547041
0.0017,0.0034,0.27672267234842
0.00175,0.0035,0.28478689220921
0.0018,0.0036,0.2928268192119
0.00185,0.0037,0.30015765567075
0.0019,0.0038,0.30818211261521
0.00195,0.0039,0.31620058223906
0.002,0.004,0.32421055094587
0.00205,0.0041,0.33221122767023
0.0021,0.0042,0.34020105510304
0.00215,0.0043,0.34818095913622
0.0022,0.0044,0.35615029179024
0.00225,0.0045,0.36410933071879
0.0023,0.0046,0.37205131197255
0.00235,0.0047,0.37997133803801
0.0024,0.0048,0.38789297756022
0.00245,0.0049,0.39580089170086
0.0025,0.005,0.40369449222399
0.00255,0.0051,0.41157217993915
0.0026,0.0052,0.41942814344029
0.00265,0.0053,0.4272744578785
0.0027,0.0053999999999999,0.43508754151672
0.00275,0.0054999999999999,0.44287690588681
0.0028,0.0055999999999999,0.45061353129846
0.00285,0.0056999999999999,0.45792335199752
0.0029,0.0057999999999999,0.46444913056212
0.00295,0.0058999999999999,0.47130165463441
0.003,0.0059999999999999,0.47792088534437
0.00305,0.0060999999999999,0.48462820425533
0.0031,0.0061999999999999,0.49141892976386
0.00315,0.0062999999999999,0.4981727991575
0.0032,0.0063999999999999,0.50415783564522
0.00325,0.0064999999999999,0.50968624606812
0.0032999999999999,0.0065999999999999,0.51505316664657
0.0033474999999999,0.0066949999999999,0.51845715991486
0.0033974999999999,0.0067949999999999,0.52004132953337
0.0034474999999999,0.0068949999999999,0.5184471362448
0.0034974999999999,0.0069949999999999,0.50324373913613
0.0035449999999999,0.0070899999999999,0.44277910702259
0.0035949999999999,0.0071899999999999,0.39980637952425
0.0036449999999999,0.0072899999999999,0.39093761161696
0.0036949999999999,0.0073899999999999,0.39165175155631
0.0037449999999999,0.0074899999999999,0.39530460864116
0.0037949999999999,0.0075899999999999,0.39969642786773
0.0038449999999999,0.0076899999999999,0.40430322808514
0.0038949999999999,0.0077899999999999,0.40904739028058
0.0039449999999999,0.0078899999999998,0.41376931809118
0.0039949999999999,0.0079899999999998,0.41846232962311
0.0040449999999999,0.0080899999999998,0.42315431879896
0.0040949999999999,0.0081899999999998,0.42791090354388
0.0041449999999999,0.0082899999999998,0.43245540384245
0.0041949999999999,0.0083899999999998,0.43681022726699
0.0042449999999999,0.0084899999999998,0.44134667361688
0.0042949999999999,0.0085899999999998,0.44590426768493
0.0043449999999999,0.0086899999999998,0.45056987195722
0.0043949999999999,0.0087899999999998,0.45529446018445
0.0044449999999999,0.0088899999999998,0.46003226741115
0.0044949999999999,0.0089899999999998,0.4647711130267
0.0045449999999999,0.0090899999999998,0.469506358943
0.0045949999999999,0.0091899999999998,0.47423212197487
0.0046449999999999,0.0092899999999998,0.47894308968829
0.0046949999999999,0.0093899999999998,0.4836218549674
0.0047449999999999,0.0094899999999998,0.48829355521962
0.0047949999999999,0.0095899999999998,0.49295219589226
0.0048449999999999,0.0096899999999998,0.49761222692471
0.0048949999999999,0.0097899999999998,0.50227778817236
0.0049449999999999,0.0098899999999998,0.50694004985505
0.0049949999999999,0.0099899999999998,0.51159927591183
0.0050449999999999,0.01009,0.51625129007074
0.0050949999999999,0.01019,0.52089292737627
0.0051449999999999,0.01029,0.525509929792
0.0051949999999999,0.01039,0.53012491483933
0.0052449999999999,0.01049,0.53466516954789
0.0052949999999999,0.01059,0.53902172951616
0.0053374999999999,0.010675,0.53818055107149
0.0053662499999999,0.0107325,0.51511377340766
0.0053818749999999,0.01076375,0.46945283122828
0.0053959374999999,0.010791875,0.42594446918975
0.0054065624999999,0.010813125,0.37318987832911
0.0054178124999999,0.010835625,0.30959164720331
0.0054490624999999,0.010898125,0.24425313031962
0.0054778124999999,0.010955625,0.18750166356078
0.0054843749999999,0.01096875,0.1229800374931
0.0054851367187499,0.0109702734375,0.054981719069581
0.0055245117187499,0.0110490234375,0.054881098515329
0.0055745117187499,0.0111490234375,0.055238241333915
0.0056245117187499,0.0112490234375,0.055588059718355
0.0056745117187499,0.0113490234375,0.055927152271762
0.0057245117187499,0.0114490234375,0.056254727139834
0.0057745117187499,0.0115490234375,0.056574402401941
0.0058245117187499,0.0116490234375,0.056880045532864
0.0058745117187499,0.0117490234375,0.05726097414063
0.0059245117187499,0.0118490234375,0.057578458912294
0.0059745117187499,0.0119490234375,0.057865856390332
0.0060107617187499,0.0120215234375,0.057944965441664
0.0060607617187498,0.0121215234375,0.058252294378784
0.0061107617187498,0.0122215234375,0.058538701569734
0.0061607617187498,0.0123215234375,0.058795569169873
0.0062107617187498,0.0124215234375,0.058991752248967
0.0062607617187498,0.0125215234375,0.058976296785443
0.0063020117187498,0.0126040234375,0.058968526298507
0.0063520117187498,0.0127040234375,0.059242093120228
0.0064020117187498,0.0128040234375,0.059407488145311
0.0064520117187498,0.0129040234375,0.059581991874229
0.0064982617187498,0.0129965234375,0.059708641119881
0.0065382617187498,0.0130765234375,0.059839467211102
0.0065882617187498,0.0131765234375,0.060069848947736
0.0066382617187498,0.0132765234375,0.060305714379732
0.0066882617187498,0.0133765234375,0.060545681190109
0.0067382617187498,0.0134765234375,0.0607893541754
0.0067882617187498,0.0135765234375,0.061036159899857
0.0068382617187498,0.0136765234375,0.061284650099598
0.0068882617187498,0.0137765234375,0.061535157370496
0.0069382617187498,0.0138765234375,0.061787388737332
0.0069882617187498,0.0139765234375,0.062039716253169
0.0070382617187498,0.0140765234375,0.062292379311412
0.0070882617187498,0.0141765234375,0.062543855756705
0.0071382617187498,0.0142765234375,0.062795926946371
0.0071882617187498,0.0143765234375,0.063055741973911
0.0072382617187498,0.0144765234375,0.063314937227872
0.0072882617187498,0.0145765234375,0.063573385756807
0.0073382617187498,0.0146765234375,0.063831119517816
0.0073882617187498,0.0147765234375,0.064086055478827
0.0074382617187498,0.0148765234375,0.064338222464061
0.0074882617187498,0.0149765234375,0.064587169422392
