time,disp_y_top,stressyy
0,0,0
5e-05,0.0001,0.0039272809498177
0.0001,0.0002,0.0078545197916775
0.00015,0.0003,0.011781671431389
0.0002,0.0004,0.015708690774725
0.00025,0.0005,0.019635532728374
0.0003,0.0006,0.023562152200297
0.00035,0.0007,0.027488504099966
0.0004,0.0008,0.031414543338669
0.00045,0.0009,0.035340224829829
0.0005,0.001,0.039265503489251
0.00055,0.0011,0.043190334235505
0.0006,0.0012,0.047114671990148
0.00065,0.0013,0.051038471678018
0.0007,0.0014,0.054961688227602
0.00075,0.0015,0.058884276571204
0.0008,0.0016,0.062806191645289
0.00085,0.0017,0.066727388390734
0.0009,0.0018,0.070647821753099
0.00095,0.0019,0.074567446682886
0.001,0.002,0.078486218135785
0.00105,0.0021,0.082404091072926
0.0011,0.0022,0.086321020461113
0.00115,0.0023,0.090236961273055
0.0012,0.0024,0.094151868487586
0.00125,0.0025,0.09806569708988
0.0013,0.0026,0.10197840207165
0.00135,0.0027,0.10588993843135
0.0014,0.0028,0.10980026117434
0.00145,0.0029,0.11370932531308
0.0015,0.003,0.11761708586728
0.00155,0.0031,0.12152349786404
0.0016,0.0032,0.125428516338
0.00165,0.0033,0.12933209633147
0.0017,0.0034,0.13323419289451
0.00175,0.0035,0.13713476108505
0.0018,0.0036,0.14103375596898
0.00185,0.0037,0.14493113262018
0.0019,0.0038,0.14882684612059
0.00195,0.0039,0.15272085156027
0.002,0.004,0.15661310403737
0.00205,0.0041,0.16050355865813
0.0021,0.0042,0.1643921705369
0.00215,0.0043,0.16827889479607
0.0022,0.0044,0.172163686566
0.00225,0.0045,0.17604650098497
0.0023,0.0046,0.17992729319948
0.00235,0.0047,0.18380601836238
0.0024,0.0048,0.1876826316357
0.00245,0.0049,0.19155708818937
0.0025,0.005,0.19542934319775
0.00255,0.0051,0.19929935184357
0.0026,0.0052,0.20316706931611
0.00265,0.0053,0.20703245081051
0.0027,0.0053999999999999,0.21089545152974
0.00275,0.0054999999999999,0.21475602668077
0.0028,0.0055999999999999,0.21861413147644
0.00285,0.0056999999999999,0.22246972113458
0.0029,0.0057999999999999,0.22632275087748
0.00295,0.0058999999999999,0.23017317593148
0.003,0.0059999999999999,0.2340209515264
0.00305,0.0060999999999999,0.23786603289502
0.0031,0.0061999999999999,0.24170837527249
0.00315,0.0062999999999999,0.24554793389564
0.0032,0.0063999999999999,0.24938466400236
0.00325,0.0064999999999999,0.25321852083087
0.0032999999999999,0.0065999999999999,0.25704945961889
0.0033499999999999,0.0066999999999999,0.26087743560288
0.0033999999999999,0.0067999999999999,0.26470240401715
0.0034499999999999,0.0068999999999999,0.26852432009293
0.0034999999999999,0.0069999999999999,0.27234313905739
0.0035499999999999,0.0070999999999999,0.27615881613259
0.0035999999999999,0.0071999999999999,0.27997130653441
0.0036499999999999,0.0072999999999999,0.28378056547139
0.0036999999999999,0.0073999999999999,0.28758654814348
0.0037499999999999,0.0074999999999999,0.29138920974088
0.0037999999999999,0.0075999999999999,0.29518850544282
0.0038499999999999,0.0076999999999999,0.29898439041504
0.0038999999999999,0.0077999999999999,0.30277681980955
0.0039499999999999,0.0078999999999998,0.30656574876277
0.0039999999999999,0.0079999999999998,0.31005358065723
0.0040499999999999,0.0080999999999998,0.31112959378859
0.0040999999999999,0.0081999999999998,0.31455859710147
0.0041499999999999,0.0082999999999998,0.31735797395503
0.0041999999999999,0.0083999999999998,0.31951003435798
0.0042499999999999,0.0084999999999998,0.32092655768024
0.0042999999999999,0.0085999999999998,0.32128997394683
0.0043499999999999,0.0086999999999998,0.32094879694989
0.0043999999999999,0.0087999999999998,0.31898647584762
0.0044499999999999,0.0088999999999998,0.3160097903876
0.0044999999999999,0.0089999999999998,0.31124331742535
0.0045499999999999,0.0090999999999998,0.3050298783751
0.0045999999999999,0.0091999999999998,0.29707157385011
0.0046499999999999,0.0092999999999998,0.28744466378974
0.0046999999999999,0.0093999999999998,0.27654864654038
0.0047499999999999,0.0094999999999998,0.26526162012038
0.0047999999999999,0.0095999999999998,0.25274615357484
0.0048499999999999,0.0096999999999998,0.24011782161726
0.0048999999999999,0.0097999999999998,0.22659118268023
0.0049499999999999,0.0098999999999998,0.21268721729224
0.0049999999999999,0.0099999999999998,0.19543932919906
0.0050499999999999,0.0101,0.17379176061469
0.0050999999999999,0.0102,0.15130690615816
0.0051499999999999,0.0103,0.13451126817916
0.0051999999999999,0.0104,0.11980393013369
0.0052499999999999,0.0105,0.10608497649039
0.0052999999999999,0.0106,0.091385319853435
0.0053499999999999,0.0107,0.066093924401544
0.0053756249999999,0.01075125,0.045255449312982
0.0053777343749999,0.01075546875,0.021938162441947
0.0053927343749999,0.01078546875,0.0037923026530494
0.0054427343749999,0.01088546875,0.0038056633605577
0.0054927343749999,0.01098546875,0.0038233309939611
0.0055427343749999,0.01108546875,0.0038374842242713
0.0055927343749999,0.01118546875,0.0038499971880389
0.0056427343749999,0.01128546875,0.0038636494435974
0.0056927343749999,0.01138546875,0.0038774203899639
0.0057427343749999,0.01148546875,0.0038912367486375
0.0057927343749998,0.01158546875,0.0039051948601814
0.0058427343749998,0.01168546875,0.0039192389645937
0.0058927343749998,0.01178546875,0.0039333358518975
0.0059427343749998,0.01188546875,0.0039474704716215
0.0059927343749998,0.01198546875,0.0039616311219431
0.0060427343749998,0.01208546875,0.0039758039026136
0.0060927343749998,0.01218546875,0.0039899780974984
0.0061427343749998,0.01228546875,0.00400413515581
0.0061927343749998,0.01238546875,0.0040182869219485
0.0062427343749998,0.01248546875,0.004032317115359
0.0062927343749998,0.01258546875,0.0040463710964053
0.0063427343749998,0.01268546875,0.0040603691949362
0.0063927343749998,0.01278546875,0.004074304017169
0.0064427343749998,0.01288546875,0.0040879731749056
0.0064927343749998,0.01298546875,0.0041009381556884
0.0065427343749998,0.01308546875,0.0041137410353444
0.0065927343749998,0.01318546875,0.0041261858825402
0.0066427343749998,0.01328546875,0.0041380505437462
0.0066927343749998,0.01338546875,0.0041500156240176
0.0067427343749998,0.01348546875,0.0041613685235245
0.0067927343749998,0.01358546875,0.0041719912478555
0.0068427343749998,0.01368546875,0.0041824200762925
0.0068927343749998,0.01378546875,0.0041926474237589
0.0069427343749998,0.01388546875,0.0042018690634317
0.0069927343749998,0.01398546875,0.0042116648872327
0.0070427343749998,0.01408546875,0.0042212472301661
0.0070927343749998,0.01418546875,0.004230588086282
0.0071427343749998,0.01428546875,0.0042397058844081
0.0071927343749998,0.01438546875,0.0042486007067054
0.0072427343749998,0.01448546875,0.0042572691273693
0.0072927343749998,0.01458546875,0.0042657073585782
0.0073427343749998,0.01468546875,0.0042739232470269
0.0073927343749998,0.01478546875,0.0042819182553369
0.0074427343749998,0.01488546875,0.0042896970026156
0.0074927343749998,0.01498546875,0.0042972668581898
