time,disp_y_top,stressyy
0,0,0
5e-05,0.0001,0.0039438283812094
0.0001,0.0002,0.0078876146372104
0.00015,0.0003,0.011831313649244
0.0002,0.0004,0.015774880298785
0.00025,0.0005,0.019718269469205
0.0003,0.0006,0.023661436046135
0.00035,0.0007,0.027604334918047
0.0004,0.0008,0.031546920976832
0.00045,0.0009,0.035489149118373
0.0005,0.001,0.039430974243125
0.00055,0.0011,0.043372351256689
0.0006,0.0012,0.047313235070383
0.00065,0.0013,0.051253580601818
0.0007,0.0014,0.055193342775465
0.00075,0.0015,0.059132476523219
0.0008,0.0016,0.063070936784974
0.00085,0.0017,0.067008678509177
0.0009,0.0018,0.070945656653386
0.00095,0.0019,0.074881826184857
0.001,0.002,0.078817142081054
0.00105,0.0021,0.082751559330233
0.0011,0.0022,0.086685032931982
0.00115,0.0023,0.090617517897764
0.0012,0.0024,0.094548969251463
0.00125,0.0025,0.098479342029921
0.0013,0.0026,0.10240859128347
0.00135,0.0027,0.10633667207647
0.0014,0.0028,0.11026353948782
0.00145,0.0029,0.11418914861149
0.0015,0.003,0.11811345455705
0.00155,0.0031,0.12203641245015
0.0016,0.0032,0.12595797743305
0.00165,0.0033,0.12987810466512
0.0017,0.0034,0.13379674932334
0.00175,0.0035,0.13771386660275
0.0018,0.0036,0.14162941171701
0.00185,0.0037,0.14554333989881
0.0019,0.0038,0.14945560640038
0.00195,0.0039,0.15336616649392
0.002,0.004,0.15727497547211
0.00205,0.0041,0.16118198864854
0.0021,0.0042,0.16508716135811
0.00215,0.0043,0.16899044895754
0.0022,0.0044,0.17289180682577
0.00225,0.0045,0.17679119036436
0.0023,0.0046,0.18068855499795
0.00235,0.0047,0.18458385617461
0.0024,0.0048,0.18847704936629
0.00245,0.0049,0.19236809006919
0.0025,0.005,0.19625693380412
0.00255,0.0051,0.2001435361169
0.0026,0.0052,0.20402785257872
0.00265,0.0053,0.20790983878646
0.0027,0.0053999999999999,0.21178945036307
0.00275,0.0054999999999999,0.21566664295787
0.0028,0.0055999999999999,0.21954137224689
0.00285,0.0056999999999999,0.22341359393344
0.0029,0.0057999999999999,0.2272832637474
0.00295,0.0058999999999999,0.23115033744696
0.003,0.0059999999999999,0.23501477081798
0.00305,0.0060999999999999,0.23887651967445
0.0031,0.0061999999999999,0.24273553985874
0.00315,0.0062999999999999,0.24659178724189
0.0032,0.0063999999999999,0.25044521772377
0.00325,0.0064999999999999,0.25429578723334
0.0032999999999999,0.0065999999999999,0.25814345172883
0.0033499999999999,0.0066999999999999,0.26198816719796
0.0033999999999999,0.0067999999999999,0.26582988965802
0.0034499999999999,0.0068999999999999,0.26966857515616
0.0034999999999999,0.0069999999999999,0.27350417976942
0.0035499999999999,0.0070999999999999,0.27733665960494
0.0035999999999999,0.0071999999999999,0.2811659707995
0.0036499999999999,0.0072999999999999,0.28499206952164
0.0036999999999999,0.0073999999999999,0.28881491196881
0.0037499999999999,0.0074999999999999,0.29263445436932
0.0037999999999999,0.0075999999999999,0.29645065298198
0.0038499999999999,0.0076999999999999,0.30026346409607
0.0038999999999999,0.0077999999999999,0.30407284403135
0.0039499999999999,0.0078999999999998,0.30787874913811
0.0039999999999999,0.0079999999999998,0.31168113579707
0.0040499999999999,0.0080999999999998,0.3154799604194
0.0040999999999999,0.0081999999999998,0.3192751794466
0.0041499999999999,0.0082999999999998,0.32306674935045
0.0041999999999999,0.0083999999999998,0.32469953736305
0.0042499999999999,0.0084999999999998,0.32619801030111
0.0042999999999999,0.0085999999999998,0.32801391068254
0.0043499999999999,0.0086999999999998,0.32796813855325
0.0043999999999999,0.0087999999999998,0.32633346855329
0.0044499999999999,0.0088999999999998,0.32276674013751
0.0044999999999999,0.0089999999999998,0.31747538883848
0.0045499999999999,0.0090999999999998,0.30968256970787
0.0045999999999999,0.0091999999999998,0.29857446328973
0.0046499999999999,0.0092999999999998,0.28413464843542
0.0046999999999999,0.0093999999999998,0.26668282156193
0.0047499999999999,0.0094999999999998,0.24746704061193
0.0047999999999999,0.0095999999999998,0.23018457675387
0.0048499999999999,0.0096999999999998,0.21452391607427
0.0048999999999999,0.0097999999999998,0.20043729310574
0.0049499999999999,0.0098999999999998,0.18673611342249
0.0049999999999999,0.0099999999999998,0.17343988682497
0.0050499999999999,0.0101,0.16020782867445
0.0050999999999999,0.0102,0.14698908452175
0.0051499999999999,0.0103,0.13355420919901
0.0051999999999999,0.0104,0.12012263661236
0.0052499999999999,0.0105,0.10656277695418
0.0052999999999999,0.0106,0.091747857730088
0.0053499999999999,0.0107,0.072871423889289
0.0053856249999999,0.01077125,0.038731692157302
0.0053881640624999,0.010776328125,0.020218801122819
0.0054081249999999,0.01081625,0.00090419122762763
0.0054581249999999,0.01091625,0.00090663841207703
0.0055081249999999,0.01101625,0.00090832596560456
0.0055581249999999,0.01111625,0.00090676700702887
0.0056081249999999,0.01121625,0.0009042359446794
0.0056581249999999,0.01131625,0.00090181652740035
0.0057081249999999,0.01141625,0.00089934845826895
0.0057581249999999,0.01151625,0.0008970952285704
0.0058081249999998,0.01161625,0.00089495709852871
0.0058581249999998,0.01171625,0.00089296663434722
0.0059081249999998,0.01181625,0.00089100944056476
0.0059581249999998,0.01191625,0.00088909330555547
0.0060081249999998,0.01201625,0.00088721039564426
0.0060581249999998,0.01211625,0.00088535323056983
0.0061081249999998,0.01221625,0.00088351467941033
0.0061581249999998,0.01231625,0.00088168795571254
0.0062081249999998,0.01241625,0.00087986661660106
0.0062581249999998,0.01251625,0.00087804456155555
0.0063081249999998,0.01261625,0.00087621603375904
0.0063581249999998,0.01271625,0.00087437562500607
0.0064081249999998,0.01281625,0.00087251827968186
0.0064581249999998,0.01291625,0.00087059439792595
0.0065081249999998,0.01301625,0.00086862370541894
0.0065581249999998,0.01311625,0.00086662632491611
0.0066081249999998,0.01321625,0.00086428999006024
0.0066581249999998,0.01331625,0.00086173032934103
0.0067081249999998,0.01341625,0.00085911315168911
0.0067581249999998,0.01351625,0.00085643497934599
0.0068081249999998,0.01361625,0.00085369403096486
0.0068581249999998,0.01371625,0.00085088737382938
0.0069081249999998,0.01381625,0.00084801566981091
0.0069581249999998,0.01391625,0.00084507914337107
0.0070081249999998,0.01401625,0.00084207831542521
0.0070581249999998,0.01411625,0.00083902356313306
0.0071081249999998,0.01421625,0.00083591226703038
0.0071581249999998,0.01431625,0.00083273053640369
0.0072081249999998,0.01441625,0.00082948363648369
0.0072581249999998,0.01451625,0.00082617510378649
0.0073081249999998,0.01461625,0.00082280263570693
0.0073581249999998,0.01471625,0.00081936499457841
0.0074081249999998,0.01481625,0.0008158796137193
0.0074581249999998,0.01491625,0.0008123526467262
