time,disp_y_top,stressyy
0,0,0
5e-05,0.0001,0.0068095177640437
0.0001,0.0002,0.013618917338484
0.00015,0.0003,0.020428073582393
0.0002,0.0004,0.027236861327475
0.00025,0.0005,0.034045155365546
0.0003,0.0006,0.040852830434284
0.00035,0.0007,0.04765976120304
0.0004,0.0008,0.054465822258668
0.00045,0.0009,0.061270888090704
0.0005,0.001,0.068074833076323
0.00055,0.0011,0.074877531465387
0.0006,0.0012,0.081678857364853
0.00065,0.0013,0.08847868472273
0.0007,0.0014,0.095276887311438
0.00075,0.0015,0.10207333871056
0.0008,0.0016,0.10886791228943
0.00085,0.0017,0.11566048118902
0.0009,0.0018,0.12245091830226
0.00095,0.0019,0.12923909625452
0.001,0.002,0.13602488738222
0.00105,0.0021,0.14280816371161
0.0011,0.0022,0.14958879693557
0.00115,0.0023,0.15636665838928
0.0012,0.0024,0.16314161902454
0.00125,0.0025,0.16991354938354
0.0013,0.0026,0.1766823195691
0.00135,0.0027,0.18344779921521
0.0014,0.0028,0.19020985745227
0.00145,0.0029,0.19696836287464
0.0015,0.003,0.20372318350324
0.00155,0.0031,0.21047418674494
0.0016,0.0032,0.21722123934963
0.00165,0.0033,0.22396420736369
0.0017,0.0034,0.23054583605504
0.00175,0.0035,0.23718964356877
0.0018,0.0036,0.24391213822002
0.00185,0.0037,0.25063324261827
0.0019,0.0038,0.25735028149051
0.00195,0.0039,0.26406201470208
0.002,0.004,0.27076790981033
0.00205,0.0041,0.27746775226278
0.0021,0.0042,0.28416160371946
0.00215,0.0043,0.29084973518673
0.0022,0.0044,0.29753170416638
0.00225,0.0045,0.30420742166735
0.0023,0.0046,0.31087616437653
0.00235,0.0047,0.31753751153652
0.0024,0.0048,0.32419216374539
0.00245,0.0049,0.33084000654844
0.0025,0.005,0.33748050572201
0.00255,0.0051,0.34411308392988
0.0026,0.0052,0.35073758636888
0.00265,0.0053,0.35734120538674
0.0027,0.0054,0.36394949053114
0.00275,0.0054999999999999,0.37054862569152
0.0028,0.0055999999999999,0.37713887494345
0.00285,0.0056999999999999,0.3837199226467
0.0029,0.0057999999999999,0.39028700801
0.00295,0.0058999999999999,0.39684910684564
0.003,0.0059999999999999,0.40340143512269
0.00305,0.0060999999999999,0.40994511854501
0.0031,0.0061999999999999,0.41647440821409
0.00315,0.0062999999999999,0.42298813986297
0.0032,0.0063999999999999,0.42948370738348
0.00325,0.0064999999999999,0.43595100422457
0.0032999999999999,0.0065999999999999,0.44235424887619
0.0033499999999999,0.0066999999999999,0.448473692636
0.0033999999999999,0.0067999999999999,0.45463084986698
0.0034499999999999,0.0068999999999999,0.4609806065478
0.0034999999999999,0.0069999999999999,0.46733449815843
0.0035499999999999,0.0070999999999999,0.47366744563554
0.0035999999999999,0.0071999999999999,0.47997383636594
0.0036499999999999,0.0072999999999999,0.48626000165089
0.0036999999999999,0.0073999999999999,0.49254181536696
0.0037499999999999,0.0074999999999999,0.4988042762498
0.0037999999999999,0.0075999999999999,0.50495881540799
0.0038499999999999,0.0076999999999999,0.51015307392711
0.0038999999999999,0.0077999999999999,0.51464793353823
0.0039499999999999,0.0078999999999999,0.51907413947335
0.0039999999999999,0.0079999999999998,0.52397231509762
0.0040499999999999,0.0080999999999998,0.52973226024278
0.0040999999999999,0.0081999999999998,0.53566456713833
0.0041499999999999,0.0082999999999998,0.54158814565492
0.0041999999999999,0.0083999999999998,0.54744171126129
0.0042499999999999,0.0084999999999998,0.5525307146871
0.0042949999999999,0.0085899999999998,0.53379769306483
0.0043349999999999,0.0086699999999998,0.50716181540418
0.0043824999999999,0.0087649999999998,0.50203872702169
0.0044324999999999,0.0088649999999998,0.50531431877948
0.0044824999999999,0.0089649999999998,0.50842802970155
0.0045224999999999,0.0090449999999998,0.49934490291262
0.0045487499999999,0.0090974999999998,0.46034327526863
0.0045881249999999,0.0091762499999998,0.44063606415468
0.0046381249999999,0.0092762499999998,0.43903477046956
0.0046806249999999,0.0093612499999998,0.42820582671101
0.0047018749999999,0.0094037499999998,0.40792418955891
0.0047331249999999,0.0094662499999998,0.38014082118937
0.0047706249999999,0.0095412499999998,0.34116327843805
0.0048206249999999,0.0096412499999998,0.34389488709124
0.0048706249999999,0.0097412499999998,0.34691835409051
0.0049206249999999,0.0098412499999998,0.34990484762931
0.0049706249999999,0.0099412499999998,0.35279260620789
0.0050206249999999,0.01004125,0.35534861854528
0.0050706249999999,0.01014125,0.3577079933867
0.0051206249999999,0.01024125,0.36020808349458
0.0051471874999999,0.010294375,0.36130607088111
0.0051865624999999,0.010373125,0.36263727269969
0.0052365624999999,0.010473125,0.36455197653207
0.0052865624999999,0.010573125,0.36231622428055
0.0053265624999999,0.010653125,0.34782335641335
0.0053515624999999,0.010703125,0.31307760027358
0.0053928124999999,0.010785625,0.28327112272907
0.0054215624999999,0.010843125,0.27132910185482
0.0054590624999999,0.010918125,0.24583057386393
0.0054865624999999,0.010973125,0.21299918931659
0.0055115624999999,0.011023125,0.1769233359
0.0055249999999999,0.01105,0.1461923929329
0.0055260742187499,0.0110521484375,0.093126686985299
0.0055559179687499,0.0111118359375,0.08980838008734
0.0056059179687499,0.0112118359375,0.090314644230134
0.0056559179687499,0.0113118359375,0.090762555845301
0.0057059179687499,0.0114118359375,0.091167249513752
0.0057559179687499,0.0115118359375,0.091548675583204
0.0058059179687499,0.0116118359375,0.091926809565482
0.0058559179687499,0.0117118359375,0.092303132428737
0.0059059179687499,0.0118118359375,0.092677501254348
0.0059215429687499,0.0118430859375,0.092529143751911
0.0059690429687499,0.0119380859375,0.092733771540651
0.0060190429687499,0.0120380859375,0.093106750997226
0.0060690429687499,0.0121380859375,0.093474408421749
0.0061190429687498,0.0122380859375,0.093837686325517
0.0061690429687498,0.0123380859375,0.09419431510793
0.0062077929687498,0.0124155859375,0.094412610282047
0.0062465429687498,0.0124930859375,0.093471052908087
0.0062965429687498,0.0125930859375,0.093703651245706
0.0063384179687498,0.0126768359375,0.093971339586307
0.0063408398437498,0.0126816796875,0.09382672146522
0.0063410524368285,0.012682104873657,0.092549900178471
