time,disp_y_top,stressyy
0,0,0
5e-05,0.0001,0.005440482270412
0.0001,0.0002,0.010880872601677
0.00015,0.0003,0.016321072976086
0.0002,0.0004,0.021760985343993
0.00025,0.0005,0.027200511609523
0.0003,0.0006,0.032639553613888
0.00035,0.0007,0.038078013118875
0.0004,0.0008,0.043515791790079
0.00045,0.0009,0.048952791179843
0.0005,0.001,0.05438891270982
0.00055,0.0011,0.059824057653126
0.0006,0.0012,0.065258127115996
0.00065,0.0013,0.070691022018897
0.0007,0.0014,0.076122643077012
0.00075,0.0015,0.081552890780024
0.0008,0.0016,0.086981665371141
0.00085,0.0017,0.092408866825219
0.0009,0.0018,0.097834394825952
0.00095,0.0019,0.10325814874199
0.001,0.002,0.10868002760187
0.00105,0.0021,0.11409993006768
0.0011,0.0022,0.11951775440727
0.00115,0.0023,0.12493339846485
0.0012,0.0024,0.13034675962806
0.00125,0.0025,0.13575773480427
0.0013,0.0026,0.14116622036677
0.00135,0.0027,0.14657211213585
0.0014,0.0028,0.15197530532924
0.00145,0.0029,0.15737569452113
0.0015,0.003,0.16277317359562
0.00155,0.0031,0.16816763569711
0.0016,0.0032,0.17352116931578
0.00165,0.0033,0.17884331755429
0.0017,0.0034,0.18417275977831
0.00175,0.0035,0.18955139771655
0.0018,0.0036,0.19492781332052
0.00185,0.0037,0.20029965231403
0.0019,0.0038,0.2056664910936
0.00195,0.0039,0.21102870414144
0.002,0.004,0.21638632153155
0.00205,0.0041,0.22173952234147
0.0021,0.0042,0.22708762235136
0.00215,0.0043,0.23243014854356
0.0022,0.0044,0.2377677454334
0.00225,0.0045,0.24310037996435
0.0023,0.0046,0.24842789630254
0.00235,0.0047,0.25375006010868
0.0024,0.0048,0.25906590544703
0.00245,0.0049,0.26437569133676
0.0025,0.005,0.26967943944615
0.00255,0.0051,0.27496583470533
0.0026,0.0052,0.28025696923696
0.00265,0.0053,0.2855410441835
0.0027,0.0053999999999999,0.29079876762571
0.00275,0.0054999999999999,0.29606840718316
0.0028,0.0055999999999999,0.3013294775601
0.00285,0.0056999999999999,0.30658184912546
0.0029,0.0057999999999999,0.31182506470202
0.00295,0.0058999999999999,0.31705710407246
0.003,0.0059999999999999,0.32228063235277
0.00305,0.0060999999999999,0.32749464086669
0.0031,0.0061999999999999,0.33269677275342
0.00315,0.0062999999999999,0.33788372438597
0.0032,0.0063999999999999,0.34305155233333
0.00325,0.0064999999999999,0.34821104756945
0.0032999999999999,0.0065999999999999,0.35334336711692
0.0033499999999999,0.0066999999999999,0.35833379656753
0.0033999999999999,0.0067999999999999,0.36205430001213
0.0034499999999999,0.0068999999999999,0.36540282858619
0.0034999999999999,0.0069999999999999,0.3688935072438
0.0035499999999999,0.0070999999999999,0.37239954504545
0.0035999999999999,0.0071999999999999,0.37562078303445
0.0036499999999999,0.0072999999999999,0.37884858423188
0.0036999999999999,0.0073999999999999,0.38185596672879
0.0037499999999999,0.0074999999999999,0.38498750624449
0.0037999999999999,0.0075999999999999,0.38817744209517
0.0038499999999999,0.0076999999999999,0.39170228174555
0.0038999999999999,0.0077999999999999,0.39549487481012
0.0039499999999999,0.0078999999999998,0.39852199724694
0.0039999999999999,0.0079999999999998,0.3973539918488
0.0040499999999999,0.0080999999999998,0.37685019350849
0.0040999999999999,0.0081999999999998,0.37533659327332
0.0041499999999999,0.0082999999999998,0.37810386398678
0.0041999999999999,0.0083999999999998,0.37950320509254
0.0042499999999999,0.0084999999999998,0.37818723857145
0.0042999999999999,0.0085999999999998,0.37345637061878
0.0043499999999999,0.0086999999999998,0.36372421855837
0.0043999999999999,0.0087999999999998,0.36519637330359
0.0044499999999999,0.0088999999999998,0.36874255796131
0.0044999999999999,0.0089999999999998,0.37247194104678
0.0045499999999999,0.0090999999999998,0.3762090055685
0.0045999999999999,0.0091999999999998,0.37994653137904
0.0046499999999999,0.0092999999999998,0.38368753549399
0.0046999999999999,0.0093999999999998,0.38743387857573
0.0047499999999999,0.0094999999999998,0.39118561013408
0.0047999999999999,0.0095999999999998,0.39494068079663
0.0048499999999999,0.0096999999999998,0.3986970174156
0.0048999999999999,0.0097999999999998,0.40245332914476
0.0049499999999999,0.0098999999999998,0.40620832767841
0.0049999999999999,0.0099999999999998,0.40995971856172
0.0050499999999999,0.0101,0.41370681415262
0.0050999999999999,0.0102,0.41744866950583
0.0051499999999999,0.0103,0.42118468105628
0.0051999999999999,0.0104,0.42491369952489
0.0052499999999999,0.0105,0.42863558076826
0.0052999999999999,0.0106,0.43234970020173
0.0053499999999999,0.0107,0.43605561682745
0.0053999999999999,0.0108,0.43975158536157
0.0054499999999999,0.0109,0.44343772984868
0.0054999999999999,0.011,0.44710998813513
0.0055499999999999,0.0111,0.45077315169254
0.0055999999999999,0.0112,0.45442199063751
0.0056499999999999,0.0113,0.45806122403677
0.0056999999999999,0.0114,0.46168773482097
0.0057499999999998,0.0115,0.46530091220304
0.0057999999999998,0.0116,0.46889388536353
0.0058499999999998,0.0117,0.47246777021966
0.0058999999999998,0.0118,0.47601630501098
0.0059499999999998,0.0119,0.47947069826386
0.0059849999999998,0.01197,0.47113428356987
0.0059981249999998,0.01199625,0.43818465947064
0.0060306249999998,0.01206125,0.39546561725547
0.0060781249999998,0.01215625,0.38306201846242
0.0061281249999998,0.01225625,0.38544488470233
0.0061781249999998,0.01235625,0.3881795437208
0.0062281249999998,0.01245625,0.39090250307071
0.0062781249999998,0.01255625,0.39359137630878
0.0063281249999998,0.01265625,0.39623178455974
0.0063781249999998,0.01275625,0.39860347960787
0.0064131249999998,0.01282625,0.39178039391721
0.0064224999999998,0.012845,0.35695573303416
0.0064443749999998,0.01288875,0.31565105953908
0.0064662499999998,0.0129325,0.29259281646374
0.0064831249999998,0.01296625,0.2398038787661
0.0064993749999998,0.01299875,0.19070036617485
0.0065199999999998,0.01304,0.15156902691592
0.0065265624999998,0.013053125,0.14919565954169
0.0065412499999998,0.0130825,0.1290976048617
0.0065428906249998,0.01308578125,0.085178057949536
0.0065775781249998,0.01315515625,0.077995009106186
0.0066275781249998,0.01325515625,0.078073152996384
0.0066775781249998,0.01335515625,0.078085035598631
0.0067125781249998,0.01342515625,0.078223160206302
0.0067563281249998,0.01351265625,0.078439170852412
0.0068038281249998,0.01360765625,0.078542349408108
0.0068175781249998,0.01363515625,0.078323505866195
0.0068675781249998,0.01373515625,0.078546599564439
0.0069038281249998,0.01380765625,0.078671924778959
0.0069213281249998,0.01384265625,0.078011416499996
0.0069688281249998,0.01393765625,0.077304372862072
0.0070188281249998,0.01403765625,0.07748873896686
0.0070688281249998,0.01413765625,0.077674211053649
0.0071188281249998,0.01423765625,0.077862306196309
0.0071688281249998,0.01433765625,0.078063472462098
0.0072188281249998,0.01443765625,0.078273330786166
0.0072688281249998,0.01453765625,0.078485922736257
0.0073188281249998,0.01463765625,0.078705273514566
0.0073688281249998,0.01473765625,0.078920421337986
0.0074188281249998,0.01483765625,0.079123737015707
0.0074688281249998,0.01493765625,0.079286335693522
