time,disp_y_top,stressyy
0,0,0
5e-05,0.0001,0.0048645825024756
0.0001,0.0002,0.0097290950942411
0.00015,0.0003,0.014593463394163
0.0002,0.0004,0.019457612984837
0.00025,0.0005,0.024321469394925
0.0003,0.0006,0.02918495807991
0.00035,0.0007,0.034048004402712
0.0004,0.0008,0.038910533613836
0.00045,0.0009,0.043772470830975
0.0005,0.001,0.04863374101793
0.00055,0.0011,0.053494268962754
0.0006,0.0012,0.058353979254987
0.00065,0.0013,0.06321279626186
0.0007,0.0014,0.068070644103323
0.00075,0.0015,0.072927446625746
0.0008,0.0016,0.077783127374104
0.00085,0.0017,0.082637609562533
0.0009,0.0018,0.087490816042948
0.00095,0.0019,0.092342669271624
0.001,0.002,0.097193091273419
0.00105,0.0021,0.10204200360339
0.0011,0.0022,0.10688932730552
0.00115,0.0023,0.11173498286824
0.0012,0.0024,0.1165788901762
0.00125,0.0025,0.12142096845809
0.0013,0.0026,0.12626113623007
0.00135,0.0027,0.13109931123404
0.0014,0.0028,0.13593541037043
0.00145,0.0029,0.14076934962397
0.0015,0.003,0.14560104398341
0.00155,0.0031,0.15043040735325
0.0016,0.0032,0.15525735245541
0.00165,0.0033,0.16008179072153
0.0017,0.0034,0.16490363217393
0.00175,0.0035,0.16972278529235
0.0018,0.0036,0.17453915686916
0.00185,0.0037,0.17935265184442
0.0019,0.0038,0.18416317312384
0.00195,0.0039,0.18897062138425
0.002,0.004,0.19377489482067
0.00205,0.0041,0.19857588890654
0.0021,0.0042,0.2033734961018
0.00215,0.0043,0.208167605527
0.0022,0.0044,0.21295810258939
0.00225,0.0045,0.21774486856022
0.0023,0.0046,0.22252778009566
0.00235,0.0047,0.22730670869141
0.0024,0.0048,0.23208152006316
0.00245,0.0049,0.23685207342561
0.0025,0.005,0.24161822268999
0.00255,0.0051,0.24637981017344
0.0026,0.0052,0.25113666987182
0.00265,0.0053,0.25588862550102
0.0027,0.0053999999999999,0.26063548877123
0.00275,0.0054999999999999,0.26537366686382
0.0028,0.0055999999999999,0.27010407314722
0.00285,0.0056999999999999,0.27483332257325
0.0029,0.0057999999999999,0.27955687195413
0.00295,0.0058999999999999,0.28427402177814
0.003,0.0059999999999999,0.28898442788761
0.00305,0.0060999999999999,0.29368771458592
0.0031,0.0061999999999999,0.2983834146621
0.00315,0.0062999999999999,0.30307108841432
0.0032,0.0063999999999999,0.30775010863523
0.00325,0.0064999999999999,0.312419832674
0.0032999999999999,0.0065999999999999,0.31708256117962
0.0033499999999999,0.0066999999999999,0.32173290760231
0.0033999999999999,0.0067999999999999,0.3263763044238
0.0034499999999999,0.0068999999999999,0.33100681158229
0.0034999999999999,0.0069999999999999,0.33561846153422
0.0035499999999999,0.0070999999999999,0.34016589155602
0.0035999999999999,0.0071999999999999,0.34431883373586
0.0036499999999999,0.0072999999999999,0.34815075250279
0.0036999999999999,0.0073999999999999,0.35214003141056
0.0037499999999999,0.0074999999999999,0.35628296743431
0.0037999999999999,0.0075999999999999,0.36046543379449
0.0038499999999999,0.0076999999999999,0.36473191531889
0.0038999999999999,0.0077999999999999,0.36903871360235
0.0039499999999999,0.0078999999999999,0.37317805928059
0.0039999999999999,0.0079999999999998,0.37427605823606
0.0040499999999999,0.0080999999999998,0.37054584475309
0.0040999999999999,0.0081999999999998,0.36606328008638
0.0041474999999999,0.0082949999999998,0.36214293368306
0.0041974999999999,0.0083949999999998,0.36271515011966
0.0042474999999999,0.0084949999999998,0.35704207426865
0.0042974999999999,0.0085949999999998,0.35013819245058
0.0043474999999999,0.0086949999999998,0.34958910352104
0.0043924999999999,0.0087849999999998,0.33368310655457
0.0044337499999999,0.0088674999999998,0.32174139417353
0.0044656249999999,0.0089312499999998,0.31080659043924
0.0045156249999999,0.0090312499999998,0.29476236972046
0.0045581249999999,0.0091162499999998,0.28015898353493
0.0046006249999999,0.0092012499999998,0.26029895431875
0.0046506249999999,0.0093012499999998,0.25293595353462
0.0047006249999999,0.0094012499999998,0.25422243834157
0.0047456249999999,0.0094912499999998,0.25424665551036
0.0047906249999999,0.0095812499999998,0.2353823719783
0.0048356249999999,0.0096712499999998,0.21543665761776
0.0048693749999999,0.0097387499999998,0.19735238819153
0.0049168749999999,0.0098337499999998,0.18027738903444
0.0049668749999999,0.0099337499999998,0.17994259756674
0.0050068749999999,0.01001375,0.17613264307882
0.0050568749999999,0.01011375,0.15180880658094
0.0050931249999999,0.01018625,0.14281762265879
0.0051381249999999,0.01027625,0.11635425882999
0.0051687499999999,0.0103375,0.11179083827144
0.0052187499999999,0.0104375,0.11137374861323
0.0052687499999999,0.0105375,0.11188943661533
0.0053187499999999,0.0106375,0.1126664706741
0.0053687499999999,0.0107375,0.1134637157157
0.0054187499999999,0.0108375,0.11425391117961
0.0054687499999999,0.0109375,0.11504964599783
0.0055187499999999,0.0110375,0.11583965360159
0.0055687499999999,0.0111375,0.11661692688003
0.0056187499999999,0.0112375,0.1173611756515
0.0056687499999999,0.0113375,0.11801240296051
0.0057187499999999,0.0114375,0.1177607742982
0.0057456249999999,0.01149125,0.10036386417514
0.0057540624999999,0.011508125,0.085271048206376
0.0057571484374999,0.011514296875,0.055054995305584
0.0057771093749999,0.01155421875,0.0297881007004
0.0058271093749999,0.01165421875,0.029902596782781
0.0058746093749999,0.01174921875,0.030026937928621
0.0058902343749999,0.01178046875,0.029980538807916
0.0059339843749998,0.01186796875,0.029681945989403
0.0059839843749998,0.01196796875,0.029777587324182
0.0060339843749998,0.01206796875,0.029868857357005
0.0060839843749998,0.01216796875,0.029954907314281
0.0061339843749998,0.01226796875,0.030036845554014
0.0061839843749998,0.01236796875,0.030114917057658
0.0062339843749998,0.01246796875,0.030180273963167
0.0062839843749998,0.01256796875,0.030239611921464
0.0063339843749998,0.01266796875,0.030288640865384
0.0063839843749998,0.01276796875,0.030103850784712
0.0064339843749998,0.01286796875,0.030085425987223
0.0064839843749998,0.01296796875,0.030148540942285
0.0065074218749998,0.01301484375,0.030155087153236
0.0065097656249998,0.01301953125,0.028883566669116
0.0065510156249998,0.01310203125,0.028912188716336
0.0065797656249998,0.01315953125,0.028587022926159
0.0066297656249998,0.01325953125,0.028679222666966
0.0066797656249998,0.01335953125,0.028768097930597
0.0067297656249998,0.01345953125,0.028855924415227
0.0067797656249998,0.01355953125,0.028941945173207
0.0068297656249998,0.01365953125,0.029026241253942
0.0068797656249998,0.01375953125,0.029114161201138
0.0069297656249998,0.01385953125,0.029191029141274
0.0069797656249998,0.01395953125,0.029244770540124
0.0069922656249998,0.01398453125,0.028907032299998
0.0070316406249998,0.01406328125,0.028938833820385
0.0070588281249998,0.01411765625,0.028678622548759
0.0070850781249998,0.01417015625,0.028587579628698
0.0071350781249998,0.01427015625,0.028676460818583
0.0071850781249998,0.01437015625,0.028759151240264
0.0072350781249998,0.01447015625,0.028839346256979
0.0072850781249998,0.01457015625,0.028918067089504
0.0073350781249998,0.01467015625,0.028995075380543
0.0073850781249998,0.01477015625,0.029070513841471
0.0074350781249998,0.01487015625,0.029144372063675
0.0074788281249998,0.01495765625,0.029205977268399
