time,disp_y_top,stressyy
0,0,0
5e-05,0.0001,0.0049922085495033
0.0001,0.0002,0.0099843471929764
0.00015,0.0003,0.014976341265122
0.0002,0.0004,0.01996811609874
0.00025,0.0005,0.024959597026045
0.0003,0.0006,0.029950709378013
0.00035,0.0007,0.034941378484042
0.0004,0.0008,0.03993152967162
0.00045,0.0009,0.044921088265977
0.0005,0.001,0.049909979589741
0.00055,0.0011,0.054898128962579
0.0006,0.0012,0.059885461700835
0.00065,0.0013,0.064871903117158
0.0007,0.0014,0.069857378520119
0.00075,0.0015,0.074841813213821
0.0008,0.0016,0.07982513249749
0.00085,0.0017,0.084807261665064
0.0009,0.0018,0.08978812600476
0.00095,0.0019,0.094767650798631
0.001,0.002,0.099745761322105
0.00105,0.0021,0.10472238284351
0.0011,0.0022,0.10969744062358
0.00115,0.0023,0.11467085991495
0.0012,0.0024,0.11964256596162
0.00125,0.0025,0.12461248399838
0.0013,0.0026,0.12958053925029
0.00135,0.0027,0.13454665693203
0.0014,0.0028,0.13951076224733
0.00145,0.0029,0.14447278038827
0.0015,0.003,0.14943263653465
0.00155,0.0031,0.15439025585329
0.0016,0.0032,0.1593455634973
0.00165,0.0033,0.16429848460529
0.0017,0.0034,0.16924894430065
0.00175,0.0035,0.17419686769068
0.0018,0.0036,0.17914217986574
0.00185,0.0037,0.1840848058984
0.0019,0.0038,0.1890246708412
0.00195,0.0039,0.19396169973082
0.002,0.004,0.19889581757941
0.00205,0.0041,0.20382694937849
0.0021,0.0042,0.20875502009735
0.00215,0.0043,0.21367995468039
0.0022,0.0044,0.21860167804761
0.00225,0.0045,0.22352011509254
0.0023,0.0046,0.22843519068079
0.00235,0.0047,0.23334682964953
0.0024,0.0048,0.23825495680526
0.00245,0.0049,0.24315949692282
0.0025,0.005,0.24806037474514
0.00255,0.0051,0.25295751497657
0.0026,0.0052,0.25785084228891
0.00265,0.0053,0.26274028131467
0.0027,0.0053999999999999,0.26762575664664
0.00275,0.0054999999999999,0.27250719283604
0.0028,0.0055999999999999,0.27738451439069
0.00285,0.0056999999999999,0.28225764577324
0.0029,0.0057999999999999,0.2871265113989
0.00295,0.0058999999999999,0.29199103563795
0.003,0.0059999999999999,0.29685114280089
0.00305,0.0060999999999999,0.30170675715342
0.0031,0.0061999999999999,0.30655780289593
0.00315,0.0062999999999999,0.31140420417215
0.0032,0.0063999999999999,0.31624588506626
0.00325,0.0064999999999999,0.32108276959866
0.0032999999999999,0.0065999999999999,0.32591478172323
0.0033499999999999,0.0066999999999999,0.3306527146896
0.0033999999999999,0.0067999999999999,0.33546395404617
0.0034499999999999,0.0068999999999999,0.33837844525022
0.0034999999999999,0.0069999999999999,0.3427965127377
0.0035499999999999,0.0070999999999999,0.34755550648363
0.0035999999999999,0.0071999999999999,0.35228470820779
0.0036499999999999,0.0072999999999999,0.35701947632592
0.0036999999999999,0.0073999999999999,0.36173738600137
0.0037499999999999,0.0074999999999999,0.36645206749338
0.0037999999999999,0.0075999999999999,0.3711524981612
0.0038499999999999,0.0076999999999999,0.37583674000037
0.0038999999999999,0.0077999999999999,0.38049939821215
0.0039499999999999,0.0078999999999998,0.38506756637041
0.0039999999999999,0.0079999999999998,0.38822396160577
0.0040499999999999,0.0080999999999998,0.38963342504934
0.0040999999999999,0.0081999999999998,0.39032163157797
0.0041499999999999,0.0082999999999998,0.39040856263172
0.0041999999999999,0.0083999999999998,0.38929866707898
0.0042499999999999,0.0084999999999998,0.38675928185786
0.0042999999999999,0.0085999999999998,0.38029345835101
0.0043499999999999,0.0086999999999998,0.36309294193529
0.0043999999999999,0.0087999999999998,0.316035109362
0.0044499999999999,0.0088999999999998,0.28860863158495
0.0044999999999999,0.0089999999999998,0.27792840206929
0.0045499999999999,0.0090999999999998,0.27219638409083
0.0045999999999999,0.0091999999999998,0.26771115148083
0.0046499999999999,0.0092999999999998,0.25252152839667
0.0046999999999999,0.0093999999999998,0.22020058911357
0.0047499999999999,0.0094999999999998,0.21946441077137
0.0047999999999999,0.0095999999999998,0.22100692431074
0.0048499999999999,0.0096999999999998,0.22272231201635
0.0048999999999999,0.0097999999999998,0.22438161856227
0.0049499999999999,0.0098999999999998,0.2262540931574
0.0049999999999999,0.0099999999999998,0.22818493977037
0.0050499999999999,0.0101,0.23010647615606
0.0050999999999999,0.0102,0.23199110400546
0.0051499999999999,0.0103,0.23381536706616
0.0051999999999999,0.0104,0.23535266244753
0.0052399999999999,0.01048,0.21393534830841
0.0052662499999999,0.0105325,0.19066410023665
0.0053162499999999,0.0106325,0.15147243272162
0.0053662499999999,0.0107325,0.13873607665979
0.0054162499999999,0.0108325,0.1357688745634
0.0054662499999999,0.0109325,0.13500577426867
0.0055162499999999,0.0110325,0.13334851124988
0.0055662499999999,0.0111325,0.13009184194187
0.0056162499999999,0.0112325,0.11682163944512
0.0056404687499999,0.0112809375,0.084367777692549
0.0056438281249999,0.01128765625,0.053548537434425
0.0056637890624999,0.011327578125,0.036369133244422
0.0057137890624999,0.011427578125,0.036504928576553
0.0057587890624999,0.011517578125,0.036591072977711
0.0058087890624998,0.011617578125,0.036773291185319
0.0058587890624998,0.011717578125,0.036958692241939
0.0059087890624998,0.011817578125,0.037145506235627
0.0059587890624998,0.011917578125,0.037332165792538
0.0060087890624998,0.012017578125,0.037519630044082
0.0060587890624998,0.012117578125,0.037707425935595
0.0061087890624998,0.012217578125,0.037894168992554
0.0061587890624998,0.012317578125,0.038080422005603
0.0062087890624998,0.012417578125,0.038265711988752
0.0062587890624998,0.012517578125,0.038449733484036
0.0063087890624998,0.012617578125,0.038632620595353
0.0063587890624998,0.012717578125,0.03881292002717
0.0064087890624998,0.012817578125,0.03898966557819
0.0064587890624998,0.012917578125,0.039164926849911
0.0065087890624998,0.013017578125,0.039338035987088
0.0065587890624998,0.013117578125,0.039507646704363
0.0066087890624998,0.013217578125,0.039675098677271
0.0066587890624998,0.013317578125,0.039841298256209
0.0067087890624998,0.013417578125,0.040006182582791
0.0067587890624998,0.013517578125,0.040171456507387
0.0068087890624998,0.013617578125,0.040338290490098
0.0068587890624998,0.013717578125,0.040504529908059
0.0069087890624998,0.013817578125,0.040670411052865
0.0069587890624998,0.013917578125,0.040836896864297
0.0070087890624998,0.014017578125,0.041005782735896
0.0070587890624998,0.014117578125,0.041179787265296
0.0071087890624998,0.014217578125,0.041353009094886
0.0071587890624998,0.014317578125,0.041526532001125
0.0072087890624998,0.014417578125,0.041700289034212
0.0072587890624998,0.014517578125,0.041872005838701
0.0073037890624998,0.014607578125,0.042024320151142
0.0073412890624998,0.014682578125,0.042116828520345
0.0073912890624998,0.014782578125,0.04229033011984
0.0074412890624998,0.014882578125,0.042469511552649
0.0074912890624998,0.014982578125,0.042649031257111
