time,disp_y_top,stressyy
0,0,0
5e-05,0.0001,0.0049332510118247
0.0001,0.0002,0.009866432909011
0.00015,0.0003,0.014799471855664
0.0002,0.0004,0.019732294017828
0.00025,0.0005,0.024664825560032
0.0003,0.0006,0.029596992645581
0.00035,0.0007,0.034528721436254
0.0004,0.0008,0.039459938091987
0.00045,0.0009,0.044390568770522
0.0005,0.001,0.049320539627061
0.00055,0.0011,0.054249776813929
0.0006,0.0012,0.059178206480222
0.00065,0.0013,0.064105754771449
0.0007,0.0014,0.069032347829158
0.00075,0.0015,0.073957911790524
0.0008,0.0016,0.078882372787959
0.00085,0.0017,0.083805656948781
0.0009,0.0018,0.088727690394716
0.00095,0.0019,0.093648399241456
0.001,0.002,0.098567709598216
0.00105,0.0021,0.10348554756731
0.0011,0.0022,0.10840183924362
0.00115,0.0023,0.11331651071409
0.0012,0.0024,0.11822948805718
0.00125,0.0025,0.12314069734234
0.0013,0.0026,0.12805006462954
0.00135,0.0027,0.1329575159685
0.0014,0.0028,0.13786297739815
0.00145,0.0029,0.14276637494603
0.0015,0.003,0.14766763462754
0.00155,0.0031,0.1525666824453
0.0016,0.0032,0.1574634443884
0.00165,0.0033,0.16235784643172
0.0017,0.0034,0.16724981453504
0.00175,0.0035,0.17213927464124
0.0018,0.0036,0.17702615267936
0.00185,0.0037,0.18191037455784
0.0019,0.0038,0.18679186616768
0.00195,0.0039,0.19167055338013
0.002,0.004,0.19654636204606
0.00205,0.0041,0.20141921799464
0.0021,0.0042,0.20628904703226
0.00215,0.0043,0.21115577494167
0.0022,0.0044,0.21601932748038
0.00225,0.0045,0.22087963038
0.0023,0.0046,0.22573660934411
0.00235,0.0047,0.23059019004849
0.0024,0.0048,0.23544029813576
0.00245,0.0049,0.24028685921982
0.0025,0.005,0.24512979888022
0.00255,0.0051,0.24996904266179
0.0026,0.0052,0.25480451607282
0.00265,0.0053,0.25963614458349
0.0027,0.0054,0.26446385362402
0.00275,0.0054999999999999,0.2692875685846
0.0028,0.0055999999999999,0.27410721481266
0.00285,0.0056999999999999,0.27892271760395
0.0029,0.0057999999999999,0.28373400221006
0.00295,0.0058999999999999,0.28854099383333
0.003,0.0059999999999999,0.2933436176228
0.00305,0.0060999999999999,0.29814179867378
0.0031,0.0061999999999999,0.30293546202448
0.00315,0.0062999999999999,0.30772453265443
0.0032,0.0063999999999999,0.31250893548108
0.00325,0.0064999999999999,0.31728859535731
0.0032999999999999,0.0065999999999999,0.32206343706878
0.0033499999999999,0.0066999999999999,0.32683338533104
0.0033999999999999,0.0067999999999999,0.33159836478751
0.0034499999999999,0.0068999999999999,0.33635830000265
0.0034999999999999,0.0069999999999999,0.34078716954705
0.0035499999999999,0.0070999999999999,0.34352821617973
0.0035999999999999,0.0071999999999999,0.34806314504925
0.0036499999999999,0.0072999999999999,0.3527380005202
0.0036999999999999,0.0073999999999999,0.35738964267706
0.0037499999999999,0.0074999999999999,0.36201455480328
0.0037999999999999,0.0075999999999999,0.36650040066586
0.0038499999999999,0.0076999999999999,0.36994226569116
0.0038999999999999,0.0077999999999999,0.37239681748206
0.0039499999999999,0.0078999999999998,0.373692201335
0.0039999999999999,0.0079999999999998,0.37357477889812
0.0040499999999999,0.0080999999999998,0.37153303834386
0.0040999999999999,0.0081999999999998,0.36739657733172
0.0041499999999999,0.0082999999999998,0.36130162538491
0.0041999999999999,0.0083999999999998,0.35148595188056
0.0042499999999999,0.0084999999999998,0.33048436632989
0.0042999999999999,0.0085999999999998,0.30791332953531
0.0043499999999999,0.0086999999999998,0.27840438238294
0.0043999999999999,0.0087999999999998,0.25715505651261
0.0044499999999999,0.0088999999999998,0.23142724160084
0.0044999999999999,0.0089999999999998,0.20507195133191
0.0045499999999999,0.0090999999999998,0.19232026469919
0.0045999999999999,0.0091999999999998,0.17911362963235
0.0046499999999999,0.0092999999999998,0.1605115411353
0.0046999999999999,0.0093999999999998,0.14819475792564
0.0047499999999999,0.0094999999999998,0.14139408955263
0.0047999999999999,0.0095999999999998,0.13334117777912
0.0048499999999999,0.0096999999999998,0.10203469157999
0.0048999999999999,0.0097999999999998,0.10116063652748
0.0049499999999999,0.0098999999999998,0.10172944797067
0.0049999999999999,0.0099999999999998,0.10204182040657
0.0050499999999999,0.0101,0.10269349524857
0.0050999999999999,0.0102,0.10349087026041
0.0051499999999999,0.0103,0.10430216748218
0.0051999999999999,0.0104,0.10512368253862
0.0052499999999999,0.0105,0.10594673019692
0.0052999999999999,0.0106,0.10673352750163
0.0053499999999999,0.0107,0.10753095014221
0.0053999999999999,0.0108,0.10831488375968
0.0054499999999999,0.0109,0.10906395652816
0.0054999999999999,0.011,0.10962539216808
0.0055499999999999,0.0111,0.10769118849461
0.0055787499999999,0.0111575,0.080516804306666
0.0055904687499999,0.0111809375,0.043107230922258
0.0055920507812499,0.0111841015625,0.016655623074364
0.0056358007812499,0.0112716015625,0.015422790542297
0.0056858007812499,0.0113716015625,0.015473392902738
0.0057358007812499,0.0114716015625,0.015529188789483
0.0057858007812499,0.0115716015625,0.015584757641681
0.0058237695312498,0.0116475390625,0.015622848884943
0.0058606445312498,0.0117212890625,0.015658894929841
0.0058673632812498,0.0117347265625,0.015662702129404
0.0058714208984373,0.011742841796875,0.015664007806077
0.0058722015380858,0.011744403076172,0.015664223269672
0.0058763421630858,0.011752684326172,0.015667984006712
0.0058771990966795,0.011754398193359,0.015667644593426
0.005879737548828,0.011759475097656,0.015668983175853
0.0058814971923827,0.011762994384765,0.015670503248643
0.0058839947509764,0.011767989501953,0.015673214178572
0.0058880560302733,0.011776112060547,0.015675820969749
